
Gurobi 10.0.3 (linux64, gurobi_cl) logging started Thu Nov  2 11:42:35 2023

Set parameter Username
Set parameter TimeLimit to value 3600
Set parameter LogFile to value "RCPSP_893.log"
Set parameter Threads to value 32
Academic license - for non-commercial use only - expires 2024-10-30
Using license file /home/jrivera6/gurobi-licenses/v1003/compute-0-35/gurobi.lic

Gurobi Optimizer version 10.0.3 build v10.0.3rc0 (linux64)
Copyright (c) 2023, Gurobi Optimization, LLC

Read MPS format model from file RCPSP_893.mps
Reading time = 0.04 seconds
RCPSP_893: 19662 rows, 7750 columns, 68337 nonzeros

CPU model: Intel(R) Xeon(R) Gold 6130 CPU @ 2.10GHz, instruction set [SSE2|AVX|AVX2|AVX512]
Thread count: 32 physical cores, 32 logical processors, using up to 32 threads

Optimize a model with 19662 rows, 7750 columns and 68337 nonzeros
Model fingerprint: 0xde27c5a1
Variable types: 62 continuous, 7688 integer (7688 binary)
Coefficient statistics:
  Matrix range     [1e+00, 3e+02]
  Objective range  [1e+00, 1e+00]
  Bounds range     [1e+00, 1e+00]
  RHS range        [1e+00, 3e+02]
Presolve removed 8938 rows and 3394 columns
Presolve time: 4.75s
Presolved: 10724 rows, 4356 columns, 38506 nonzeros
Variable types: 61 continuous, 4295 integer (4295 binary)

Root relaxation: objective 7.300000e+01, 1329 iterations, 0.02 seconds (0.01 work units)
Total elapsed time = 5.03s

    Nodes    |    Current Node    |     Objective Bounds      |     Work
 Expl Unexpl |  Obj  Depth IntInf | Incumbent    BestBd   Gap | It/Node Time

     0     0   73.00000    0   80          -   73.00000      -     -    5s
     0     0   73.00000    0  239          -   73.00000      -     -    7s
     0     0   73.00000    0  207          -   73.00000      -     -    8s
     0     0   73.00000    0   50          -   73.00000      -     -   11s
     0     0   73.00000    0   58          -   73.00000      -     -   11s
     0     0   73.00000    0   42          -   73.00000      -     -   13s
     0     0   73.00000    0   44          -   73.00000      -     -   14s
     0     0   73.00000    0   65          -   73.00000      -     -   15s
     0     0   73.00000    0   93          -   73.00000      -     -   16s
     0     0   73.00000    0   76          -   73.00000      -     -   17s
     0     0   73.00000    0  225          -   73.00000      -     -   17s
     0     0   73.00000    0   85          -   73.00000      -     -   19s
     0     0   73.00000    0  181          -   73.00000      -     -   54s
     0     0   73.00000    0  131          -   73.00000      -     -   55s
H    0     0                     328.0000000   73.00000  77.7%     -   56s
     0     0   73.00000    0  110  328.00000   73.00000  77.7%     -   56s
H    0     0                     122.0000000   73.00000  40.2%     -   60s
     0     2   73.00000    0   62  122.00000   73.00000  40.2%     -   63s
     3     6   73.00000    2  102  122.00000   73.00000  40.2%   450   67s
     7    11   73.00000    3  199  122.00000   73.00000  40.2%   278   70s
H   43    51                      98.0000000   73.00000  25.5%   194   95s
H   44    51                      92.0000000   73.00000  20.7%   191   95s
H   60    51                      91.0000000   73.00000  19.8%   171   95s
H  106    76                      85.0000000   73.00000  14.1%   148  130s
H  109    76                      84.0000000   73.00000  13.1%   146  130s
H  114    76                      83.0000000   73.00000  12.0%   140  130s
H  122    76                      81.0000000   73.00000  9.88%   137  130s
   170    56   73.00000   10  133   81.00000   73.00000  9.88%   124  136s
   249    97   73.00000   12  208   81.00000   73.00000  9.88%   124  142s
   336   186   73.00000   14  322   81.00000   73.00000  9.88%   124  146s
   546   388   73.00000   16  324   81.00000   73.00000  9.88%  87.8  156s
   891   730   75.00000   20  260   81.00000   73.00000  9.88%  64.0  161s
H 1181   879                      80.0000000   73.00000  8.75%  53.8  165s
  1414  1092   79.00000   25  322   80.00000   73.00000  8.75%  49.2  170s
  1560  1241   79.00000   25  313   80.00000   73.00000  8.75%  48.1  175s
  2180  1718   79.00000   35  172   80.00000   73.00000  8.75%  41.2  182s
  2384  1769   79.00000   40  169   80.00000   73.00000  8.75%  40.4  185s
  2494  1843   79.00000   42  213   80.00000   73.00000  8.75%  41.1  192s
  2673  1885   79.00000   49  215   80.00000   73.00000  8.75%  41.7  200s
  2984  1886   78.00000   68  110   80.00000   73.00000  8.75%  42.4  243s
  2987  1888   75.00000   47   56   80.00000   73.00000  8.75%  42.4  246s
  2990  1890   79.00000   26  216   80.00000   73.00000  8.75%  42.3  250s
H 2990  1795                      79.0000000   73.00000  7.59%  42.3  252s
  2992  1796   76.00000   47  168   79.00000   73.00000  7.59%  42.3  255s
  2994  1798   75.00000   31  210   79.00000   73.00000  7.59%  42.3  260s
  2997  1800   76.00000   23   45   79.00000   73.00000  7.59%  42.2  267s
  3000  1805   73.00000   16   34   79.00000   73.00000  7.59%  51.0  276s
  3006  1815   73.00000   18   36   79.00000   73.00000  7.59%  51.0  280s
  3030  1854   73.00000   20   55   79.00000   73.00000  7.59%  51.2  288s
  3062  1874   75.00000   21  110   79.00000   73.00000  7.59%  51.3  291s
H 3094  1804                      78.0000000   73.00000  6.41%  51.2  454s
H 3123  1709                      77.0000000   73.00000  5.19%  51.3  454s
  3126  1714   73.00000   22  168   77.00000   73.00000  5.19%  51.3  495s
  3190  1705   73.00000   23  166   77.00000   73.00000  5.19%  51.5  505s
  3242  1723   73.00000   23  174   77.00000   73.00000  5.19%  53.6  512s
  3283  1741   73.00000   24  168   77.00000   73.00000  5.19%  54.3  519s
  3325  1757   73.00000   24  176   77.00000   73.00000  5.19%  57.4  525s
  3378  1769   73.00000   25   37   77.00000   73.00000  5.19%  59.4  531s
  3427  1832   74.00000   26   31   77.00000   73.00000  5.19%  60.2  539s
  3551  1851   73.00000   28   54   77.00000   73.00000  5.19%  60.5  548s
  3663  1917   73.00000   30   63   77.00000   73.00000  5.19%  60.5  557s
  3862  1973   73.00000   33   59   77.00000   73.00000  5.19%  60.8  564s
  4088  2005   75.00000   36  158   77.00000   73.00000  5.19%  60.1  574s
  4292  2021   73.00000   38   47   77.00000   73.00000  5.19%  60.7  583s
  4437  2108   73.00000   40   47   77.00000   73.00000  5.19%  59.9  593s
  4713  2160   73.00000   45   40   77.00000   73.00000  5.19%  60.0  605s
  5019  2214   73.00000   49   56   77.00000   73.00000  5.19%  59.9  616s
  5348  2234   75.00000   54   70   77.00000   73.00000  5.19%  59.2  631s
  5699  2290     cutoff   55        77.00000   73.00000  5.19%  59.8  649s
  6080  3056   74.00000   32  107   77.00000   73.00000  5.19%  60.7  658s
  7637  2655   76.00000   39  104   77.00000   73.00000  5.19%  53.6  674s
  7991  3804   76.00000   46   91   77.00000   73.00000  5.19%  54.2  688s
 10257  3947 infeasible   66        77.00000   73.00000  5.19%  47.9  701s
 10643  5273   73.00000   36   67   77.00000   73.00000  5.19%  48.8  714s
 13266  5469   74.00000   36  142   77.00000   73.00000  5.19%  45.1  729s
 13726  7075   76.00000   41  119   77.00000   73.00000  5.19%  46.1  743s
 16969  7496   76.00000   72   48   77.00000   73.00000  5.19%  42.8  761s
 18165  7555   75.00000   34   94   77.00000   73.00000  5.19%  42.9  813s
 18336  7764   76.00000   38   89   77.00000   73.00000  5.19%  43.3  837s
 18936  9241   73.00000   28   43   77.00000   73.00000  5.19%  44.1  856s
 22314  9507 infeasible   61        77.00000   73.00000  5.19%  43.0  881s
 22996 11536   76.00000   67   70   77.00000   73.00000  5.19%  44.4  905s
 27582 11744 infeasible   46        77.00000   73.00000  5.19%  42.6  930s
 28295 13628     cutoff   60        77.00000   73.00000  5.19%  43.8  952s
 32706 13629   76.00000   42  110   77.00000   73.00000  5.19%  43.0  997s
 32710 13632   76.00000   51  122   77.00000   73.00000  5.19%  43.0 1000s
 32715 13635   73.00000   39   51   77.00000   73.00000  5.19%  43.0 1006s
 32719 13638   76.00000   24   45   77.00000   73.00000  5.19%  43.0 1011s
 32722 13642   73.00000   30   27   77.00000   73.00000  5.19%  43.6 1020s
 32727 13648   73.00000   32   29   77.00000   73.00000  5.19%  43.6 1025s
 32744 13670   73.00000   34   60   77.00000   73.00000  5.19%  43.7 1030s
 32796 13704   73.00000   36   34   77.00000   73.00000  5.19%  43.7 1036s
 32828 13715   73.00000   36   58   77.00000   73.00000  5.19%  43.7 1094s
 32860 13734   73.00000   37  163   77.00000   73.00000  5.19%  43.7 1097s
 32892 13748   73.00000   37   44   77.00000   73.00000  5.19%  43.7 1537s
 32924 13762   73.00000   38   38   77.00000   73.00000  5.19%  44.2 1736s
 32956 13800   73.00000   39   40   77.00000   73.00000  5.19%  44.3 1758s
 33017 13829   73.00000   40   40   77.00000   73.00000  5.19%  44.3 1767s
 33076 13952   73.00000   41   48   77.00000   73.00000  5.19%  44.4 1786s
 33258 14104   73.00000   44   46   77.00000   73.00000  5.19%  44.5 1808s
 33561 14181   73.00000   47   56   77.00000   73.00000  5.19%  44.7 1823s
 33843 14273   75.00000   49   77   77.00000   73.00000  5.19%  44.9 1846s
 34195 14395   73.00000   54   60   77.00000   73.00000  5.19%  45.5 1873s
 34645 14601   75.00000   59  121   77.00000   73.00000  5.19%  46.0 1901s
 35327 14698 infeasible   66        77.00000   73.00000  5.19%  46.2 1943s
 36002 14856   74.00000   75  144   77.00000   73.00000  5.19%  46.5 1999s
 36813 14988   76.00000   74   76   77.00000   73.00000  5.19%  46.9 2036s
 37765 15118   75.00000   74   87   77.00000   73.00000  5.19%  47.6 2069s
 38769 15297   76.00000   65   56   77.00000   73.00000  5.19%  48.3 2129s
 39986 15536     cutoff   71        77.00000   73.00000  5.19%  49.0 2210s
 41404 15562 infeasible   65        77.00000   73.00000  5.19%  49.8 2291s
 42819 15781     cutoff   64        77.00000   73.00000  5.19%  51.3 2365s
 44534 15979     cutoff   79        77.00000   73.00000  5.19%  52.4 2503s
*45686 13096             118      76.0000000   73.00000  3.95%  52.9 2562s
 46498 13124   74.00000   48  109   76.00000   73.00000  3.95%  53.6 2717s
 48317 13161   74.00000   95  133   76.00000   73.00000  3.95%  55.9 2946s
 50331 16995   75.00000   71  163   76.00000   73.00000  3.95%  58.4 3563s
 59675 14118 infeasible   74        76.00000   73.00000  3.95%  55.4 3600s

Cutting planes:
  Gomory: 33
  Cover: 87
  Implied bound: 60
  Projected implied bound: 3
  Clique: 91
  MIR: 50
  StrongCG: 13
  Flow cover: 156
  Zero half: 9
  RLT: 35
  Relax-and-lift: 157

Explored 60908 nodes (3469899 simplex iterations) in 3616.07 seconds (87.30 work units)
Thread count was 32 (of 32 available processors)

Solution count 10: 76 77 78 ... 91

Time limit reached
Best objective 7.600000000000e+01, best bound 7.300000000000e+01, gap 3.9474%

Wrote result file 'RCPSP_893.sol'

